90 4005
1 2 201
1 3 33
1 4 249
1 5 232
1 6 139
1 7 139
1 8 184
1 9 200
1 10 57
1 11 183
1 12 172
1 13 55
1 14 192
1 15 76
1 16 189
1 17 242
1 18 111
1 19 149
1 20 19
1 21 9
1 22 45
1 23 59
1 24 216
1 25 184
1 26 134
1 27 222
1 28 252
1 29 236
1 30 257
1 31 190
1 32 202
1 33 57
1 34 160
1 35 170
1 36 162
1 37 18
1 38 85
1 39 131
1 40 255
1 41 144
1 42 33
1 43 29
1 44 196
1 45 18
1 46 173
1 47 76
1 48 252
1 49 2
1 50 235
1 51 156
1 52 119
1 53 221
1 54 41
1 55 222
1 56 20
1 57 16
1 58 264
1 59 63
1 60 199
1 61 54
1 62 227
1 63 156
1 64 60
1 65 48
1 66 108
1 67 253
1 68 261
1 69 172
1 70 5
1 71 267
1 72 221
1 73 73
1 74 37
1 75 228
1 76 178
1 77 210
1 78 4
1 79 35
1 80 65
1 81 255
1 82 52
1 83 144
1 84 123
1 85 253
1 86 50
1 87 147
1 88 219
1 89 201
1 90 51
2 3 206
2 4 75
2 5 186
2 6 206
2 7 90
2 8 206
2 9 79
2 10 45
2 11 255
2 12 91
2 13 111
2 14 53
2 15 160
2 16 151
2 17 197
2 18 32
2 19 182
2 20 204
2 21 152
2 22 96
2 23 208
2 24 231
2 25 147
2 26 42
2 27 112
2 28 39
2 29 15
2 30 264
2 31 262
2 32 251
2 33 58
2 34 91
2 35 13
2 36 76
2 37 204
2 38 30
2 39 254
2 40 45
2 41 5
2 42 26
2 43 93
2 44 237
2 45 44
2 46 4
2 47 180
2 48 7
2 49 89
2 50 91
2 51 262
2 52 209
2 53 93
2 54 214
2 55 129
2 56 238
2 57 21
2 58 188
2 59 9
2 60 156
2 61 90
2 62 182
2 63 171
2 64 251
2 65 152
2 66 172
2 67 34
2 68 191
2 69 171
2 70 115
2 71 159
2 72 122
2 73 58
2 74 53
2 75 90
2 76 225
2 77 251
2 78 248
2 79 198
2 80 140
2 81 226
2 82 248
2 83 243
2 84 214
2 85 83
2 86 102
2 87 238
2 88 177
2 89 166
2 90 138
3 4 115
3 5 218
3 6 132
3 7 126
3 8 125
3 9 263
3 10 125
3 11 138
3 12 182
3 13 41
3 14 248
3 15 78
3 16 125
3 17 0
3 18 253
3 19 181
3 20 57
3 21 83
3 22 257
3 23 91
3 24 33
3 25 253
3 26 222
3 27 211
3 28 137
3 29 76
3 30 32
3 31 68
3 32 147
3 33 5
3 34 90
3 35 109
3 36 52
3 37 265
3 38 248
3 39 20
3 40 201
3 41 37
3 42 167
3 43 59
3 44 179
3 45 104
3 46 125
3 47 18
3 48 173
3 49 198
3 50 179
3 51 3
3 52 115
3 53 193
3 54 198
3 55 7
3 56 170
3 57 172
3 58 207
3 59 148
3 60 144
3 61 184
3 62 8
3 63 95
3 64 44
3 65 170
3 66 1
3 67 248
3 68 94
3 69 111
3 70 79
3 71 12
3 72 150
3 73 81
3 74 240
3 75 237
3 76 33
3 77 176
3 78 39
3 79 48
3 80 108
3 81 27
3 82 195
3 83 194
3 84 207
3 85 141
3 86 37
3 87 33
3 88 88
3 89 79
3 90 99
4 5 140
4 6 135
4 7 2
4 8 168
4 9 25
4 10 227
4 11 202
4 12 256
4 13 198
4 14 259
4 15 65
4 16 183
4 17 264
4 18 144
4 19 2
4 20 251
4 21 127
4 22 154
4 23 188
4 24 194
4 25 99
4 26 137
4 27 93
4 28 186
4 29 226
4 30 257
4 31 16
4 32 160
4 33 11
4 34 57
4 35 147
4 36 252
4 37 132
4 38 143
4 39 69
4 40 245
4 41 210
4 42 155
4 43 43
4 44 177
4 45 82
4 46 175
4 47 178
4 48 136
4 49 266
4 50 197
4 51 191
4 52 95
4 53 151
4 54 14
4 55 246
4 56 95
4 57 195
4 58 29
4 59 14
4 60 234
4 61 11
4 62 109
4 63 235
4 64 267
4 65 94
4 66 86
4 67 46
4 68 153
4 69 247
4 70 136
4 71 90
4 72 15
4 73 119
4 74 232
4 75 247
4 76 56
4 77 104
4 78 111
4 79 98
4 80 20
4 81 157
4 82 76
4 83 11
4 84 64
4 85 108
4 86 212
4 87 226
4 88 233
4 89 136
4 90 88
5 6 231
5 7 251
5 8 104
5 9 75
5 10 95
5 11 24
5 12 173
5 13 256
5 14 210
5 15 261
5 16 21
5 17 123
5 18 172
5 19 99
5 20 213
5 21 84
5 22 187
5 23 91
5 24 151
5 25 191
5 26 223
5 27 125
5 28 258
5 29 64
5 30 38
5 31 22
5 32 41
5 33 61
5 34 18
5 35 4
5 36 112
5 37 70
5 38 13
5 39 47
5 40 244
5 41 245
5 42 71
5 43 135
5 44 152
5 45 97
5 46 120
5 47 211
5 48 148
5 49 204
5 50 156
5 51 12
5 52 231
5 53 98
5 54 100
5 55 177
5 56 62
5 57 155
5 58 220
5 59 210
5 60 159
5 61 94
5 62 265
5 63 223
5 64 160
5 65 203
5 66 170
5 67 155
5 68 52
5 69 137
5 70 191
5 71 223
5 72 162
5 73 59
5 74 10
5 75 8
5 76 88
5 77 145
5 78 229
5 79 189
5 80 178
5 81 26
5 82 85
5 83 51
5 84 262
5 85 201
5 86 190
5 87 37
5 88 51
5 89 7
5 90 263
6 7 143
6 8 250
6 9 180
6 10 222
6 11 117
6 12 53
6 13 250
6 14 67
6 15 263
6 16 201
6 17 86
6 18 152
6 19 260
6 20 16
6 21 7
6 22 194
6 23 163
6 24 45
6 25 225
6 26 105
6 27 201
6 28 142
6 29 8
6 30 51
6 31 74
6 32 16
6 33 160
6 34 127
6 35 0
6 36 266
6 37 166
6 38 16
6 39 102
6 40 28
6 41 82
6 42 25
6 43 186
6 44 180
6 45 182
6 46 187
6 47 221
6 48 203
6 49 183
6 50 160
6 51 243
6 52 151
6 53 249
6 54 186
6 55 220
6 56 247
6 57 13
6 58 209
6 59 222
6 60 177
6 61 4
6 62 11
6 63 135
6 64 115
6 65 103
6 66 65
6 67 219
6 68 12
6 69 113
6 70 171
6 71 66
6 72 235
6 73 136
6 74 220
6 75 65
6 76 65
6 77 8
6 78 116
6 79 70
6 80 50
6 81 158
6 82 135
6 83 257
6 84 254
6 85 66
6 86 38
6 87 207
6 88 23
6 89 38
6 90 126
7 8 249
7 9 68
7 10 123
7 11 163
7 12 192
7 13 91
7 14 240
7 15 257
7 16 143
7 17 237
7 18 24
7 19 66
7 20 176
7 21 261
7 22 183
7 23 115
7 24 97
7 25 38
7 26 181
7 27 220
7 28 179
7 29 41
7 30 176
7 31 214
7 32 1
7 33 123
7 34 140
7 35 81
7 36 127
7 37 249
7 38 213
7 39 177
7 40 181
7 41 122
7 42 108
7 43 90
7 44 98
7 45 200
7 46 92
7 47 223
7 48 127
7 49 244
7 50 173
7 51 148
7 52 212
7 53 18
7 54 5
7 55 76
7 56 127
7 57 71
7 58 58
7 59 66
7 60 192
7 61 193
7 62 209
7 63 118
7 64 265
7 65 69
7 66 135
7 67 241
7 68 86
7 69 31
7 70 20
7 71 212
7 72 237
7 73 230
7 74 120
7 75 91
7 76 210
7 77 87
7 78 216
7 79 135
7 80 46
7 81 55
7 82 175
7 83 237
7 84 178
7 85 163
7 86 44
7 87 185
7 88 98
7 89 188
7 90 9
8 9 194
8 10 113
8 11 62
8 12 205
8 13 103
8 14 251
8 15 53
8 16 111
8 17 182
8 18 255
8 19 139
8 20 180
8 21 234
8 22 240
8 23 79
8 24 48
8 25 118
8 26 83
8 27 8
8 28 163
8 29 81
8 30 256
8 31 164
8 32 154
8 33 170
8 34 91
8 35 187
8 36 56
8 37 226
8 38 140
8 39 74
8 40 153
8 41 193
8 42 203
8 43 125
8 44 53
8 45 96
8 46 152
8 47 75
8 48 65
8 49 236
8 50 151
8 51 122
8 52 264
8 53 250
8 54 185
8 55 245
8 56 240
8 57 47
8 58 63
8 59 28
8 60 139
8 61 130
8 62 268
8 63 86
8 64 96
8 65 103
8 66 183
8 67 97
8 68 71
8 69 145
8 70 14
8 71 2
8 72 13
8 73 126
8 74 102
8 75 129
8 76 118
8 77 55
8 78 33
8 79 40
8 80 233
8 81 204
8 82 262
8 83 53
8 84 147
8 85 161
8 86 161
8 87 116
8 88 126
8 89 108
8 90 262
9 10 237
9 11 258
9 12 165
9 13 228
9 14 9
9 15 87
9 16 129
9 17 191
9 18 15
9 19 92
9 20 126
9 21 184
9 22 250
9 23 269
9 24 124
9 25 9
9 26 194
9 27 185
9 28 236
9 29 192
9 30 103
9 31 196
9 32 164
9 33 65
9 34 32
9 35 208
9 36 186
9 37 103
9 38 106
9 39 173
9 40 85
9 41 225
9 42 264
9 43 171
9 44 179
9 45 6
9 46 64
9 47 25
9 48 24
9 49 229
9 50 36
9 51 91
9 52 148
9 53 162
9 54 102
9 55 40
9 56 198
9 57 228
9 58 11
9 59 3
9 60 168
9 61 135
9 62 156
9 63 80
9 64 265
9 65 77
9 66 95
9 67 79
9 68 107
9 69 59
9 70 92
9 71 46
9 72 88
9 73 253
9 74 101
9 75 44
9 76 142
9 77 177
9 78 104
9 79 26
9 80 209
9 81 82
9 82 218
9 83 176
9 84 151
9 85 115
9 86 139
9 87 49
9 88 267
9 89 254
9 90 87
10 11 134
10 12 150
10 13 231
10 14 159
10 15 53
10 16 94
10 17 254
10 18 232
10 19 47
10 20 11
10 21 89
10 22 93
10 23 217
10 24 193
10 25 178
10 26 99
10 27 30
10 28 150
10 29 8
10 30 98
10 31 135
10 32 224
10 33 93
10 34 23
10 35 65
10 36 80
10 37 203
10 38 130
10 39 255
10 40 152
10 41 177
10 42 78
10 43 89
10 44 265
10 45 13
10 46 191
10 47 203
10 48 53
10 49 86
10 50 241
10 51 146
10 52 150
10 53 99
10 54 111
10 55 127
10 56 152
10 57 142
10 58 110
10 59 87
10 60 35
10 61 58
10 62 53
10 63 120
10 64 143
10 65 199
10 66 126
10 67 90
10 68 26
10 69 26
10 70 210
10 71 197
10 72 208
10 73 175
10 74 249
10 75 226
10 76 60
10 77 264
10 78 43
10 79 234
10 80 92
10 81 76
10 82 8
10 83 59
10 84 30
10 85 151
10 86 105
10 87 71
10 88 55
10 89 116
10 90 121
11 12 44
11 13 251
11 14 8
11 15 106
11 16 201
11 17 200
11 18 249
11 19 46
11 20 158
11 21 236
11 22 266
11 23 21
11 24 3
11 25 157
11 26 124
11 27 96
11 28 194
11 29 96
11 30 263
11 31 66
11 32 194
11 33 213
11 34 2
11 35 71
11 36 136
11 37 126
11 38 186
11 39 22
11 40 174
11 41 171
11 42 39
11 43 196
11 44 186
11 45 46
11 46 21
11 47 46
11 48 216
11 49 48
11 50 33
11 51 115
11 52 61
11 53 154
11 54 216
11 55 139
11 56 140
11 57 124
11 58 123
11 59 180
11 60 97
11 61 105
11 62 9
11 63 200
11 64 213
11 65 26
11 66 197
11 67 259
11 68 28
11 69 149
11 70 190
11 71 186
11 72 135
11 73 179
11 74 109
11 75 115
11 76 213
11 77 160
11 78 82
11 79 157
11 80 59
11 81 38
11 82 82
11 83 107
11 84 68
11 85 24
11 86 15
11 87 10
11 88 52
11 89 221
11 90 190
12 13 247
12 14 264
12 15 82
12 16 178
12 17 154
12 18 12
12 19 262
12 20 89
12 21 156
12 22 163
12 23 87
12 24 201
12 25 204
12 26 157
12 27 241
12 28 129
12 29 200
12 30 17
12 31 42
12 32 191
12 33 51
12 34 245
12 35 265
12 36 248
12 37 245
12 38 50
12 39 248
12 40 256
12 41 136
12 42 137
12 43 167
12 44 182
12 45 113
12 46 200
12 47 95
12 48 100
12 49 140
12 50 139
12 51 145
12 52 103
12 53 75
12 54 54
12 55 146
12 56 1
12 57 240
12 58 173
12 59 32
12 60 28
12 61 240
12 62 16
12 63 265
12 64 206
12 65 211
12 66 0
12 67 0
12 68 186
12 69 113
12 70 97
12 71 189
12 72 255
12 73 96
12 74 183
12 75 159
12 76 7
12 77 202
12 78 87
12 79 249
12 80 193
12 81 188
12 82 98
12 83 187
12 84 18
12 85 138
12 86 8
12 87 7
12 88 216
12 89 246
12 90 140
13 14 180
13 15 175
13 16 231
13 17 106
13 18 225
13 19 58
13 20 222
13 21 8
13 22 255
13 23 261
13 24 122
13 25 228
13 26 200
13 27 232
13 28 124
13 29 2
13 30 80
13 31 244
13 32 65
13 33 83
13 34 159
13 35 132
13 36 229
13 37 84
13 38 83
13 39 129
13 40 190
13 41 242
13 42 267
13 43 72
13 44 162
13 45 15
13 46 141
13 47 17
13 48 181
13 49 132
13 50 111
13 51 160
13 52 33
13 53 255
13 54 155
13 55 80
13 56 142
13 57 212
13 58 151
13 59 6
13 60 77
13 61 64
13 62 51
13 63 188
13 64 255
13 65 56
13 66 52
13 67 168
13 68 228
13 69 188
13 70 6
13 71 258
13 72 245
13 73 73
13 74 70
13 75 139
13 76 100
13 77 240
13 78 96
13 79 193
13 80 156
13 81 144
13 82 43
13 83 92
13 84 233
13 85 190
13 86 181
13 87 111
13 88 84
13 89 237
13 90 62
14 15 152
14 16 127
14 17 17
14 18 104
14 19 254
14 20 7
14 21 171
14 22 231
14 23 264
14 24 161
14 25 50
14 26 4
14 27 194
14 28 174
14 29 19
14 30 31
14 31 219
14 32 84
14 33 204
14 34 54
14 35 67
14 36 89
14 37 169
14 38 201
14 39 167
14 40 178
14 41 99
14 42 210
14 43 164
14 44 92
14 45 200
14 46 241
14 47 56
14 48 50
14 49 212
14 50 73
14 51 170
14 52 18
14 53 121
14 54 252
14 55 91
14 56 127
14 57 255
14 58 145
14 59 114
14 60 130
14 61 153
14 62 199
14 63 117
14 64 266
14 65 30
14 66 118
14 67 263
14 68 122
14 69 25
14 70 265
14 71 204
14 72 48
14 73 177
14 74 173
14 75 165
14 76 75
14 77 60
14 78 106
14 79 180
14 80 106
14 81 249
14 82 104
14 83 232
14 84 107
14 85 250
14 86 61
14 87 70
14 88 34
14 89 206
14 90 49
15 16 65
15 17 106
15 18 89
15 19 50
15 20 156
15 21 48
15 22 11
15 23 260
15 24 39
15 25 257
15 26 63
15 27 91
15 28 173
15 29 187
15 30 90
15 31 198
15 32 154
15 33 163
15 34 200
15 35 112
15 36 19
15 37 211
15 38 128
15 39 188
15 40 193
15 41 86
15 42 128
15 43 45
15 44 52
15 45 200
15 46 78
15 47 217
15 48 96
15 49 249
15 50 28
15 51 159
15 52 161
15 53 25
15 54 66
15 55 21
15 56 157
15 57 219
15 58 180
15 59 259
15 60 57
15 61 122
15 62 14
15 63 226
15 64 148
15 65 221
15 66 133
15 67 5
15 68 177
15 69 20
15 70 169
15 71 84
15 72 215
15 73 112
15 74 171
15 75 150
15 76 55
15 77 182
15 78 37
15 79 161
15 80 38
15 81 127
15 82 106
15 83 85
15 84 11
15 85 242
15 86 202
15 87 125
15 88 85
15 89 104
15 90 92
16 17 7
16 18 98
16 19 49
16 20 15
16 21 63
16 22 257
16 23 20
16 24 34
16 25 78
16 26 213
16 27 162
16 28 167
16 29 110
16 30 8
16 31 85
16 32 135
16 33 96
16 34 198
16 35 234
16 36 128
16 37 168
16 38 106
16 39 106
16 40 93
16 41 130
16 42 31
16 43 202
16 44 210
16 45 31
16 46 195
16 47 190
16 48 108
16 49 79
16 50 254
16 51 159
16 52 202
16 53 168
16 54 261
16 55 51
16 56 253
16 57 127
16 58 215
16 59 258
16 60 120
16 61 84
16 62 61
16 63 102
16 64 250
16 65 249
16 66 255
16 67 237
16 68 161
16 69 128
16 70 10
16 71 7
16 72 268
16 73 199
16 74 162
16 75 222
16 76 226
16 77 114
16 78 102
16 79 141
16 80 167
16 81 33
16 82 201
16 83 71
16 84 209
16 85 178
16 86 245
16 87 125
16 88 28
16 89 251
16 90 225
17 18 54
17 19 225
17 20 59
17 21 50
17 22 245
17 23 174
17 24 113
17 25 115
17 26 113
17 27 118
17 28 160
17 29 205
17 30 72
17 31 251
17 32 149
17 33 80
17 34 180
17 35 145
17 36 256
17 37 29
17 38 77
17 39 142
17 40 98
17 41 266
17 42 148
17 43 188
17 44 144
17 45 263
17 46 96
17 47 99
17 48 253
17 49 48
17 50 232
17 51 265
17 52 10
17 53 172
17 54 151
17 55 31
17 56 269
17 57 209
17 58 247
17 59 26
17 60 224
17 61 12
17 62 150
17 63 257
17 64 185
17 65 148
17 66 236
17 67 53
17 68 35
17 69 103
17 70 69
17 71 112
17 72 141
17 73 78
17 74 235
17 75 269
17 76 237
17 77 111
17 78 130
17 79 269
17 80 20
17 81 129
17 82 68
17 83 188
17 84 52
17 85 102
17 86 27
17 87 105
17 88 40
17 89 43
17 90 132
18 19 254
18 20 247
18 21 129
18 22 254
18 23 124
18 24 217
18 25 145
18 26 253
18 27 237
18 28 64
18 29 104
18 30 137
18 31 39
18 32 105
18 33 94
18 34 135
18 35 183
18 36 135
18 37 92
18 38 229
18 39 127
18 40 153
18 41 47
18 42 82
18 43 50
18 44 25
18 45 34
18 46 96
18 47 252
18 48 192
18 49 65
18 50 22
18 51 58
18 52 170
18 53 103
18 54 252
18 55 68
18 56 139
18 57 125
18 58 98
18 59 208
18 60 30
18 61 121
18 62 146
18 63 53
18 64 132
18 65 158
18 66 206
18 67 25
18 68 49
18 69 223
18 70 47
18 71 61
18 72 237
18 73 80
18 74 130
18 75 252
18 76 139
18 77 136
18 78 260
18 79 76
18 80 187
18 81 106
18 82 126
18 83 4
18 84 256
18 85 253
18 86 213
18 87 264
18 88 29
18 89 229
18 90 15
19 20 73
19 21 232
19 22 100
19 23 252
19 24 112
19 25 47
19 26 31
19 27 253
19 28 256
19 29 106
19 30 244
19 31 36
19 32 111
19 33 62
19 34 226
19 35 57
19 36 36
19 37 224
19 38 66
19 39 78
19 40 201
19 41 159
19 42 137
19 43 199
19 44 161
19 45 31
19 46 126
19 47 230
19 48 116
19 49 47
19 50 2
19 51 198
19 52 209
19 53 46
19 54 90
19 55 237
19 56 149
19 57 264
19 58 113
19 59 148
19 60 78
19 61 152
19 62 120
19 63 193
19 64 96
19 65 80
19 66 171
19 67 208
19 68 128
19 69 2
19 70 205
19 71 248
19 72 209
19 73 47
19 74 218
19 75 220
19 76 130
19 77 189
19 78 119
19 79 223
19 80 13
19 81 103
19 82 7
19 83 39
19 84 33
19 85 119
19 86 203
19 87 171
19 88 130
19 89 90
19 90 35
20 21 246
20 22 180
20 23 263
20 24 25
20 25 194
20 26 49
20 27 120
20 28 210
20 29 249
20 30 87
20 31 232
20 32 12
20 33 154
20 34 117
20 35 17
20 36 178
20 37 72
20 38 112
20 39 133
20 40 242
20 41 117
20 42 243
20 43 266
20 44 262
20 45 258
20 46 50
20 47 204
20 48 88
20 49 94
20 50 109
20 51 142
20 52 50
20 53 57
20 54 95
20 55 178
20 56 208
20 57 253
20 58 45
20 59 42
20 60 44
20 61 98
20 62 251
20 63 196
20 64 194
20 65 167
20 66 142
20 67 195
20 68 168
20 69 226
20 70 86
20 71 152
20 72 63
20 73 7
20 74 53
20 75 203
20 76 116
20 77 10
20 78 101
20 79 96
20 80 20
20 81 105
20 82 30
20 83 110
20 84 14
20 85 133
20 86 57
20 87 190
20 88 68
20 89 55
20 90 62
21 22 199
21 23 190
21 24 27
21 25 15
21 26 128
21 27 62
21 28 113
21 29 76
21 30 64
21 31 228
21 32 242
21 33 142
21 34 172
21 35 170
21 36 222
21 37 60
21 38 230
21 39 40
21 40 152
21 41 205
21 42 231
21 43 7
21 44 202
21 45 224
21 46 235
21 47 175
21 48 61
21 49 20
21 50 229
21 51 114
21 52 211
21 53 36
21 54 186
21 55 94
21 56 65
21 57 154
21 58 237
21 59 62
21 60 47
21 61 43
21 62 15
21 63 99
21 64 13
21 65 36
21 66 88
21 67 239
21 68 170
21 69 34
21 70 32
21 71 255
21 72 72
21 73 94
21 74 185
21 75 54
21 76 167
21 77 142
21 78 122
21 79 143
21 80 126
21 81 1
21 82 14
21 83 17
21 84 166
21 85 45
21 86 264
21 87 104
21 88 53
21 89 25
21 90 46
22 23 100
22 24 23
22 25 142
22 26 77
22 27 117
22 28 210
22 29 55
22 30 211
22 31 226
22 32 17
22 33 211
22 34 20
22 35 188
22 36 216
22 37 76
22 38 202
22 39 179
22 40 92
22 41 135
22 42 163
22 43 207
22 44 265
22 45 207
22 46 16
22 47 91
22 48 241
22 49 77
22 50 253
22 51 212
22 52 5
22 53 12
22 54 81
22 55 262
22 56 126
22 57 255
22 58 84
22 59 137
22 60 125
22 61 217
22 62 64
22 63 212
22 64 164
22 65 165
22 66 90
22 67 256
22 68 216
22 69 66
22 70 174
22 71 72
22 72 10
22 73 121
22 74 25
22 75 184
22 76 196
22 77 86
22 78 75
22 79 207
22 80 227
22 81 226
22 82 260
22 83 204
22 84 178
22 85 30
22 86 236
22 87 27
22 88 103
22 89 205
22 90 157
23 24 37
23 25 128
23 26 33
23 27 206
23 28 16
23 29 165
23 30 264
23 31 265
23 32 178
23 33 54
23 34 142
23 35 36
23 36 72
23 37 84
23 38 77
23 39 24
23 40 151
23 41 233
23 42 87
23 43 262
23 44 229
23 45 79
23 46 71
23 47 89
23 48 46
23 49 204
23 50 158
23 51 40
23 52 23
23 53 43
23 54 254
23 55 135
23 56 72
23 57 28
23 58 115
23 59 163
23 60 4
23 61 63
23 62 105
23 63 57
23 64 90
23 65 74
23 66 102
23 67 84
23 68 29
23 69 154
23 70 58
23 71 28
23 72 163
23 73 189
23 74 46
23 75 61
23 76 97
23 77 145
23 78 121
23 79 68
23 80 37
23 81 91
23 82 158
23 83 3
23 84 259
23 85 123
23 86 69
23 87 130
23 88 227
23 89 125
23 90 188
24 25 117
24 26 161
24 27 246
24 28 185
24 29 8
24 30 112
24 31 238
24 32 100
24 33 210
24 34 249
24 35 5
24 36 131
24 37 226
24 38 63
24 39 122
24 40 43
24 41 53
24 42 122
24 43 247
24 44 140
24 45 229
24 46 202
24 47 220
24 48 1
24 49 141
24 50 87
24 51 101
24 52 262
24 53 119
24 54 135
24 55 146
24 56 155
24 57 200
24 58 49
24 59 171
24 60 79
24 61 236
24 62 4
24 63 212
24 64 206
24 65 269
24 66 152
24 67 25
24 68 64
24 69 32
24 70 237
24 71 183
24 72 79
24 73 25
24 74 230
24 75 196
24 76 233
24 77 266
24 78 216
24 79 154
24 80 192
24 81 148
24 82 131
24 83 208
24 84 238
24 85 113
24 86 256
24 87 147
24 88 13
24 89 242
24 90 216
25 26 215
25 27 127
25 28 254
25 29 114
25 30 14
25 31 112
25 32 244
25 33 114
25 34 228
25 35 192
25 36 83
25 37 180
25 38 111
25 39 170
25 40 184
25 41 62
25 42 59
25 43 260
25 44 49
25 45 251
25 46 203
25 47 52
25 48 264
25 49 98
25 50 238
25 51 45
25 52 263
25 53 231
25 54 214
25 55 51
25 56 177
25 57 130
25 58 186
25 59 244
25 60 195
25 61 124
25 62 221
25 63 137
25 64 58
25 65 139
25 66 164
25 67 74
25 68 166
25 69 25
25 70 41
25 71 134
25 72 114
25 73 61
25 74 63
25 75 209
25 76 172
25 77 174
25 78 4
25 79 42
25 80 244
25 81 174
25 82 71
25 83 262
25 84 208
25 85 13
25 86 164
25 87 196
25 88 232
25 89 0
25 90 85
26 27 7
26 28 16
26 29 94
26 30 19
26 31 222
26 32 143
26 33 205
26 34 167
26 35 184
26 36 119
26 37 241
26 38 26
26 39 227
26 40 192
26 41 261
26 42 84
26 43 114
26 44 217
26 45 177
26 46 148
26 47 268
26 48 209
26 49 170
26 50 164
26 51 236
26 52 25
26 53 97
26 54 54
26 55 262
26 56 94
26 57 216
26 58 104
26 59 124
26 60 268
26 61 182
26 62 209
26 63 83
26 64 129
26 65 134
26 66 60
26 67 263
26 68 152
26 69 107
26 70 170
26 71 2
26 72 128
26 73 97
26 74 50
26 75 70
26 76 226
26 77 20
26 78 208
26 79 263
26 80 75
26 81 252
26 82 268
26 83 252
26 84 88
26 85 246
26 86 126
26 87 11
26 88 87
26 89 31
26 90 154
27 28 266
27 29 99
27 30 78
27 31 52
27 32 47
27 33 78
27 34 172
27 35 86
27 36 210
27 37 121
27 38 11
27 39 172
27 40 189
27 41 80
27 42 122
27 43 80
27 44 127
27 45 261
27 46 165
27 47 192
27 48 114
27 49 68
27 50 100
27 51 148
27 52 87
27 53 30
27 54 67
27 55 244
27 56 176
27 57 123
27 58 79
27 59 136
27 60 9
27 61 81
27 62 102
27 63 71
27 64 38
27 65 116
27 66 8
27 67 67
27 68 162
27 69 246
27 70 16
27 71 0
27 72 53
27 73 87
27 74 119
27 75 269
27 76 94
27 77 181
27 78 134
27 79 156
27 80 129
27 81 126
27 82 239
27 83 191
27 84 168
27 85 264
27 86 148
27 87 191
27 88 29
27 89 84
27 90 257
28 29 81
28 30 240
28 31 263
28 32 34
28 33 60
28 34 220
28 35 108
28 36 172
28 37 85
28 38 28
28 39 125
28 40 41
28 41 269
28 42 242
28 43 146
28 44 71
28 45 221
28 46 146
28 47 164
28 48 160
28 49 8
28 50 25
28 51 73
28 52 138
28 53 229
28 54 251
28 55 239
28 56 124
28 57 257
28 58 4
28 59 173
28 60 123
28 61 39
28 62 183
28 63 29
28 64 36
28 65 112
28 66 265
28 67 83
28 68 24
28 69 58
28 70 180
28 71 229
28 72 6
28 73 238
28 74 160
28 75 47
28 76 72
28 77 22
28 78 131
28 79 106
28 80 93
28 81 36
28 82 47
28 83 18
28 84 19
28 85 224
28 86 222
28 87 75
28 88 88
28 89 193
28 90 268
29 30 189
29 31 99
29 32 55
29 33 121
29 34 252
29 35 6
29 36 177
29 37 14
29 38 103
29 39 49
29 40 128
29 41 80
29 42 203
29 43 123
29 44 209
29 45 163
29 46 232
29 47 3
29 48 36
29 49 197
29 50 191
29 51 80
29 52 254
29 53 12
29 54 219
29 55 220
29 56 88
29 57 66
29 58 14
29 59 50
29 60 85
29 61 231
29 62 16
29 63 109
29 64 66
29 65 41
29 66 231
29 67 114
29 68 49
29 69 152
29 70 181
29 71 204
29 72 87
29 73 192
29 74 232
29 75 209
29 76 216
29 77 153
29 78 149
29 79 241
29 80 6
29 81 160
29 82 73
29 83 14
29 84 12
29 85 86
29 86 131
29 87 28
29 88 150
29 89 91
29 90 189
30 31 126
30 32 114
30 33 139
30 34 69
30 35 62
30 36 117
30 37 116
30 38 55
30 39 210
30 40 97
30 41 55
30 42 260
30 43 34
30 44 263
30 45 76
30 46 227
30 47 103
30 48 113
30 49 140
30 50 216
30 51 190
30 52 29
30 53 67
30 54 170
30 55 121
30 56 4
30 57 217
30 58 196
30 59 126
30 60 65
30 61 95
30 62 113
30 63 55
30 64 105
30 65 72
30 66 177
30 67 232
30 68 31
30 69 148
30 70 235
30 71 226
30 72 176
30 73 143
30 74 104
30 75 229
30 76 24
30 77 137
30 78 151
30 79 4
30 80 52
30 81 121
30 82 11
30 83 247
30 84 250
30 85 153
30 86 41
30 87 72
30 88 213
30 89 174
30 90 120
31 32 17
31 33 178
31 34 14
31 35 243
31 36 123
31 37 35
31 38 140
31 39 74
31 40 34
31 41 27
31 42 79
31 43 116
31 44 167
31 45 122
31 46 150
31 47 62
31 48 122
31 49 234
31 50 110
31 51 60
31 52 91
31 53 233
31 54 129
31 55 261
31 56 161
31 57 254
31 58 37
31 59 209
31 60 66
31 61 221
31 62 121
31 63 23
31 64 167
31 65 266
31 66 222
31 67 191
31 68 2
31 69 164
31 70 67
31 71 126
31 72 215
31 73 223
31 74 80
31 75 5
31 76 200
31 77 215
31 78 263
31 79 3
31 80 150
31 81 171
31 82 64
31 83 151
31 84 12
31 85 234
31 86 11
31 87 181
31 88 103
31 89 96
31 90 92
32 33 133
32 34 142
32 35 264
32 36 225
32 37 104
32 38 202
32 39 136
32 40 183
32 41 204
32 42 60
32 43 2
32 44 234
32 45 164
32 46 203
32 47 31
32 48 268
32 49 44
32 50 113
32 51 226
32 52 16
32 53 74
32 54 76
32 55 87
32 56 30
32 57 223
32 58 18
32 59 140
32 60 141
32 61 248
32 62 247
32 63 108
32 64 172
32 65 242
32 66 251
32 67 24
32 68 42
32 69 57
32 70 57
32 71 137
32 72 208
32 73 116
32 74 167
32 75 86
32 76 56
32 77 211
32 78 211
32 79 192
32 80 82
32 81 172
32 82 7
32 83 57
32 84 110
32 85 243
32 86 110
32 87 15
32 88 25
32 89 141
32 90 70
33 34 42
33 35 111
33 36 190
33 37 134
33 38 184
33 39 213
33 40 223
33 41 185
33 42 73
33 43 88
33 44 258
33 45 14
33 46 200
33 47 93
33 48 207
33 49 60
33 50 239
33 51 227
33 52 58
33 53 105
33 54 40
33 55 52
33 56 40
33 57 20
33 58 136
33 59 146
33 60 91
33 61 200
33 62 123
33 63 129
33 64 256
33 65 122
33 66 122
33 67 113
33 68 126
33 69 250
33 70 164
33 71 186
33 72 160
33 73 141
33 74 42
33 75 191
33 76 91
33 77 237
33 78 148
33 79 158
33 80 13
33 81 17
33 82 51
33 83 130
33 84 58
33 85 55
33 86 119
33 87 61
33 88 206
33 89 126
33 90 259
34 35 71
34 36 221
34 37 80
34 38 166
34 39 133
34 40 268
34 41 225
34 42 179
34 43 109
34 44 92
34 45 117
34 46 264
34 47 158
34 48 72
34 49 239
34 50 58
34 51 164
34 52 105
34 53 102
34 54 109
34 55 5
34 56 116
34 57 28
34 58 30
34 59 33
34 60 122
34 61 33
34 62 239
34 63 203
34 64 178
34 65 221
34 66 27
34 67 222
34 68 77
34 69 37
34 70 69
34 71 114
34 72 256
34 73 58
34 74 35
34 75 170
34 76 61
34 77 160
34 78 224
34 79 143
34 80 174
34 81 1
34 82 70
34 83 98
34 84 44
34 85 98
34 86 256
34 87 257
34 88 249
34 89 188
34 90 131
35 36 225
35 37 48
35 38 230
35 39 153
35 40 80
35 41 219
35 42 80
35 43 238
35 44 74
35 45 238
35 46 147
35 47 48
35 48 98
35 49 244
35 50 155
35 51 38
35 52 21
35 53 263
35 54 255
35 55 33
35 56 73
35 57 77
35 58 222
35 59 212
35 60 223
35 61 131
35 62 248
35 63 134
35 64 91
35 65 222
35 66 51
35 67 113
35 68 262
35 69 21
35 70 261
35 71 91
35 72 264
35 73 88
35 74 25
35 75 147
35 76 91
35 77 107
35 78 61
35 79 243
35 80 246
35 81 90
35 82 87
35 83 63
35 84 25
35 85 142
35 86 175
35 87 128
35 88 185
35 89 132
35 90 10
36 37 176
36 38 161
36 39 67
36 40 221
36 41 64
36 42 72
36 43 203
36 44 158
36 45 101
36 46 106
36 47 88
36 48 116
36 49 147
36 50 86
36 51 144
36 52 115
36 53 269
36 54 7
36 55 38
36 56 139
36 57 261
36 58 141
36 59 45
36 60 43
36 61 83
36 62 244
36 63 153
36 64 213
36 65 233
36 66 72
36 67 144
36 68 116
36 69 72
36 70 169
36 71 57
36 72 212
36 73 0
36 74 151
36 75 211
36 76 37
36 77 77
36 78 205
36 79 149
36 80 6
36 81 4
36 82 215
36 83 193
36 84 17
36 85 26
36 86 108
36 87 130
36 88 140
36 89 189
36 90 3
37 38 178
37 39 36
37 40 160
37 41 6
37 42 9
37 43 262
37 44 13
37 45 246
37 46 123
37 47 97
37 48 147
37 49 191
37 50 217
37 51 70
37 52 169
37 53 123
37 54 78
37 55 90
37 56 261
37 57 248
37 58 167
37 59 27
37 60 97
37 61 12
37 62 159
37 63 212
37 64 119
37 65 126
37 66 250
37 67 18
37 68 189
37 69 102
37 70 98
37 71 226
37 72 79
37 73 163
37 74 251
37 75 172
37 76 82
37 77 174
37 78 194
37 79 39
37 80 211
37 81 193
37 82 189
37 83 85
37 84 42
37 85 90
37 86 65
37 87 98
37 88 219
37 89 102
37 90 65
38 39 238
38 40 28
38 41 95
38 42 176
38 43 224
38 44 242
38 45 13
38 46 177
38 47 7
38 48 188
38 49 5
38 50 205
38 51 216
38 52 43
38 53 184
38 54 32
38 55 85
38 56 219
38 57 181
38 58 214
38 59 16
38 60 167
38 61 80
38 62 39
38 63 155
38 64 30
38 65 221
38 66 223
38 67 163
38 68 169
38 69 35
38 70 266
38 71 193
38 72 230
38 73 149
38 74 8
38 75 145
38 76 267
38 77 34
38 78 173
38 79 244
38 80 118
38 81 267
38 82 215
38 83 179
38 84 55
38 85 18
38 86 267
38 87 44
38 88 146
38 89 23
38 90 19
39 40 209
39 41 131
39 42 22
39 43 182
39 44 161
39 45 32
39 46 261
39 47 178
39 48 41
39 49 142
39 50 63
39 51 24
39 52 47
39 53 228
39 54 213
39 55 245
39 56 88
39 57 245
39 58 158
39 59 14
39 60 9
39 61 47
39 62 257
39 63 14
39 64 14
39 65 200
39 66 208
39 67 88
39 68 82
39 69 215
39 70 145
39 71 104
39 72 4
39 73 41
39 74 56
39 75 92
39 76 54
39 77 258
39 78 166
39 79 30
39 80 36
39 81 261
39 82 21
39 83 28
39 84 47
39 85 210
39 86 248
39 87 166
39 88 79
39 89 172
39 90 257
40 41 134
40 42 162
40 43 224
40 44 49
40 45 254
40 46 36
40 47 27
40 48 110
40 49 255
40 50 121
40 51 11
40 52 139
40 53 180
40 54 65
40 55 178
40 56 100
40 57 267
40 58 111
40 59 167
40 60 164
40 61 70
40 62 141
40 63 111
40 64 145
40 65 75
40 66 61
40 67 155
40 68 172
40 69 237
40 70 0
40 71 90
40 72 118
40 73 89
40 74 262
40 75 239
40 76 204
40 77 16
40 78 28
40 79 125
40 80 247
40 81 212
40 82 10
40 83 57
40 84 150
40 85 202
40 86 52
40 87 20
40 88 50
40 89 125
40 90 2
41 42 201
41 43 204
41 44 74
41 45 129
41 46 220
41 47 129
41 48 212
41 49 24
41 50 92
41 51 54
41 52 55
41 53 82
41 54 80
41 55 67
41 56 62
41 57 23
41 58 1
41 59 65
41 60 9
41 61 175
41 62 0
41 63 199
41 64 179
41 65 96
41 66 163
41 67 57
41 68 169
41 69 103
41 70 56
41 71 9
41 72 108
41 73 260
41 74 98
41 75 70
41 76 118
41 77 98
41 78 41
41 79 256
41 80 191
41 81 183
41 82 245
41 83 149
41 84 225
41 85 128
41 86 180
41 87 144
41 88 22
41 89 261
41 90 91
42 43 52
42 44 35
42 45 267
42 46 96
42 47 132
42 48 48
42 49 38
42 50 61
42 51 265
42 52 205
42 53 191
42 54 256
42 55 59
42 56 88
42 57 148
42 58 195
42 59 107
42 60 176
42 61 104
42 62 16
42 63 109
42 64 122
42 65 137
42 66 248
42 67 73
42 68 235
42 69 219
42 70 199
42 71 60
42 72 35
42 73 158
42 74 72
42 75 223
42 76 215
42 77 158
42 78 250
42 79 88
42 80 91
42 81 236
42 82 152
42 83 238
42 84 44
42 85 42
42 86 192
42 87 0
42 88 114
42 89 228
42 90 227
43 44 232
43 45 155
43 46 199
43 47 22
43 48 60
43 49 147
43 50 109
43 51 41
43 52 4
43 53 146
43 54 18
43 55 94
43 56 150
43 57 107
43 58 210
43 59 164
43 60 43
43 61 108
43 62 255
43 63 159
43 64 254
43 65 233
43 66 69
43 67 188
43 68 179
43 69 238
43 70 19
43 71 82
43 72 63
43 73 0
43 74 76
43 75 40
43 76 193
43 77 258
43 78 170
43 79 197
43 80 103
43 81 207
43 82 203
43 83 222
43 84 238
43 85 136
43 86 23
43 87 58
43 88 46
43 89 187
43 90 70
44 45 171
44 46 201
44 47 255
44 48 3
44 49 177
44 50 51
44 51 38
44 52 152
44 53 204
44 54 98
44 55 9
44 56 219
44 57 78
44 58 47
44 59 134
44 60 94
44 61 250
44 62 49
44 63 75
44 64 111
44 65 169
44 66 262
44 67 263
44 68 89
44 69 93
44 70 52
44 71 73
44 72 184
44 73 183
44 74 41
44 75 1
44 76 87
44 77 182
44 78 23
44 79 170
44 80 25
44 81 135
44 82 216
44 83 200
44 84 126
44 85 183
44 86 54
44 87 106
44 88 137
44 89 28
44 90 33
45 46 211
45 47 90
45 48 74
45 49 244
45 50 165
45 51 19
45 52 123
45 53 138
45 54 149
45 55 57
45 56 70
45 57 173
45 58 221
45 59 166
45 60 178
45 61 74
45 62 175
45 63 104
45 64 126
45 65 25
45 66 226
45 67 103
45 68 170
45 69 148
45 70 115
45 71 191
45 72 113
45 73 68
45 74 41
45 75 142
45 76 22
45 77 122
45 78 162
45 79 114
45 80 263
45 81 79
45 82 198
45 83 38
45 84 9
45 85 38
45 86 78
45 87 243
45 88 257
45 89 31
45 90 47
46 47 6
46 48 265
46 49 169
46 50 29
46 51 145
46 52 116
46 53 181
46 54 192
46 55 237
46 56 151
46 57 68
46 58 230
46 59 8
46 60 221
46 61 87
46 62 36
46 63 137
46 64 113
46 65 169
46 66 269
46 67 229
46 68 38
46 69 251
46 70 264
46 71 142
46 72 52
46 73 38
46 74 167
46 75 195
46 76 193
46 77 6
46 78 127
46 79 104
46 80 261
46 81 100
46 82 259
46 83 125
46 84 223
46 85 217
46 86 248
46 87 25
46 88 29
46 89 170
46 90 55
47 48 4
47 49 252
47 50 95
47 51 68
47 52 117
47 53 244
47 54 42
47 55 128
47 56 157
47 57 24
47 58 71
47 59 248
47 60 121
47 61 104
47 62 233
47 63 222
47 64 67
47 65 72
47 66 15
47 67 7
47 68 266
47 69 258
47 70 110
47 71 193
47 72 182
47 73 244
47 74 268
47 75 165
47 76 205
47 77 77
47 78 199
47 79 208
47 80 47
47 81 0
47 82 5
47 83 192
47 84 206
47 85 61
47 86 25
47 87 57
47 88 161
47 89 194
47 90 95
48 49 261
48 50 204
48 51 193
48 52 134
48 53 268
48 54 17
48 55 135
48 56 251
48 57 209
48 58 238
48 59 22
48 60 41
48 61 62
48 62 196
48 63 157
48 64 260
48 65 30
48 66 57
48 67 257
48 68 20
48 69 22
48 70 10
48 71 59
48 72 84
48 73 16
48 74 242
48 75 164
48 76 1
48 77 185
48 78 16
48 79 115
48 80 43
48 81 60
48 82 228
48 83 45
48 84 145
48 85 182
48 86 64
48 87 225
48 88 133
48 89 177
48 90 260
49 50 106
49 51 179
49 52 137
49 53 121
49 54 45
49 55 153
49 56 229
49 57 156
49 58 167
49 59 206
49 60 120
49 61 23
49 62 74
49 63 106
49 64 40
49 65 221
49 66 25
49 67 50
49 68 87
49 69 158
49 70 51
49 71 50
49 72 195
49 73 208
49 74 129
49 75 9
49 76 206
49 77 268
49 78 151
49 79 123
49 80 121
49 81 175
49 82 56
49 83 113
49 84 157
49 85 66
49 86 161
49 87 191
49 88 119
49 89 213
49 90 233
50 51 144
50 52 169
50 53 128
50 54 192
50 55 236
50 56 23
50 57 167
50 58 246
50 59 104
50 60 211
50 61 132
50 62 188
50 63 266
50 64 245
50 65 174
50 66 135
50 67 79
50 68 250
50 69 85
50 70 17
50 71 169
50 72 9
50 73 26
50 74 127
50 75 31
50 76 125
50 77 140
50 78 266
50 79 122
50 80 222
50 81 269
50 82 228
50 83 48
50 84 68
50 85 172
50 86 91
50 87 33
50 88 76
50 89 224
50 90 233
51 52 158
51 53 115
51 54 139
51 55 221
51 56 102
51 57 243
51 58 186
51 59 77
51 60 238
51 61 89
51 62 35
51 63 207
51 64 125
51 65 217
51 66 15
51 67 198
51 68 96
51 69 8
51 70 132
51 71 72
51 72 181
51 73 59
51 74 105
51 75 206
51 76 240
51 77 222
51 78 258
51 79 72
51 80 241
51 81 88
51 82 164
51 83 220
51 84 188
51 85 64
51 86 89
51 87 14
51 88 127
51 89 35
51 90 7
52 53 159
52 54 4
52 55 141
52 56 236
52 57 146
52 58 244
52 59 19
52 60 171
52 61 219
52 62 116
52 63 24
52 64 248
52 65 235
52 66 227
52 67 116
52 68 0
52 69 263
52 70 177
52 71 204
52 72 153
52 73 81
52 74 70
52 75 43
52 76 229
52 77 70
52 78 28
52 79 70
52 80 137
52 81 172
52 82 158
52 83 225
52 84 136
52 85 221
52 86 56
52 87 173
52 88 61
52 89 49
52 90 73
53 54 151
53 55 50
53 56 170
53 57 84
53 58 58
53 59 209
53 60 78
53 61 141
53 62 160
53 63 72
53 64 101
53 65 235
53 66 69
53 67 168
53 68 45
53 69 80
53 70 149
53 71 129
53 72 210
53 73 89
53 74 169
53 75 261
53 76 131
53 77 114
53 78 209
53 79 32
53 80 47
53 81 66
53 82 137
53 83 8
53 84 191
53 85 189
53 86 109
53 87 200
53 88 239
53 89 104
53 90 233
54 55 219
54 56 58
54 57 147
54 58 207
54 59 109
54 60 91
54 61 162
54 62 28
54 63 47
54 64 102
54 65 236
54 66 267
54 67 155
54 68 244
54 69 248
54 70 42
54 71 61
54 72 204
54 73 2
54 74 17
54 75 187
54 76 183
54 77 163
54 78 79
54 79 108
54 80 169
54 81 31
54 82 7
54 83 104
54 84 187
54 85 130
54 86 170
54 87 5
54 88 26
54 89 193
54 90 256
55 56 47
55 57 225
55 58 73
55 59 234
55 60 108
55 61 30
55 62 128
55 63 150
55 64 168
55 65 268
55 66 93
55 67 256
55 68 158
55 69 120
55 70 218
55 71 113
55 72 194
55 73 142
55 74 253
55 75 83
55 76 267
55 77 187
55 78 191
55 79 80
55 80 7
55 81 120
55 82 4
55 83 16
55 84 220
55 85 14
55 86 246
55 87 155
55 88 205
55 89 7
55 90 186
56 57 222
56 58 231
56 59 192
56 60 82
56 61 235
56 62 239
56 63 206
56 64 221
56 65 119
56 66 201
56 67 185
56 68 236
56 69 249
56 70 93
56 71 67
56 72 0
56 73 60
56 74 241
56 75 3
56 76 15
56 77 138
56 78 97
56 79 158
56 80 149
56 81 124
56 82 91
56 83 229
56 84 12
56 85 212
56 86 133
56 87 89
56 88 60
56 89 29
56 90 263
57 58 267
57 59 38
57 60 28
57 61 46
57 62 12
57 63 15
57 64 249
57 65 259
57 66 140
57 67 130
57 68 203
57 69 108
57 70 35
57 71 80
57 72 89
57 73 142
57 74 236
57 75 13
57 76 155
57 77 142
57 78 139
57 79 10
57 80 253
57 81 228
57 82 227
57 83 188
57 84 146
57 85 27
57 86 259
57 87 184
57 88 41
57 89 33
57 90 146
58 59 29
58 60 135
58 61 132
58 62 53
58 63 250
58 64 240
58 65 60
58 66 175
58 67 154
58 68 14
58 69 142
58 70 129
58 71 130
58 72 86
58 73 227
58 74 260
58 75 36
58 76 246
58 77 103
58 78 215
58 79 39
58 80 269
58 81 269
58 82 155
58 83 234
58 84 184
58 85 111
58 86 96
58 87 91
58 88 191
58 89 174
58 90 31
59 60 32
59 61 49
59 62 205
59 63 3
59 64 98
59 65 216
59 66 112
59 67 235
59 68 129
59 69 120
59 70 257
59 71 241
59 72 203
59 73 232
59 74 254
59 75 29
59 76 140
59 77 229
59 78 112
59 79 213
59 80 64
59 81 181
59 82 29
59 83 139
59 84 139
59 85 59
59 86 93
59 87 96
59 88 57
59 89 39
59 90 70
60 61 183
60 62 199
60 63 202
60 64 160
60 65 70
60 66 194
60 67 155
60 68 24
60 69 104
60 70 144
60 71 218
60 72 133
60 73 37
60 74 22
60 75 184
60 76 226
60 77 62
60 78 261
60 79 229
60 80 175
60 81 106
60 82 206
60 83 216
60 84 236
60 85 210
60 86 104
60 87 80
60 88 50
60 89 113
60 90 49
61 62 98
61 63 75
61 64 141
61 65 183
61 66 43
61 67 249
61 68 257
61 69 227
61 70 229
61 71 134
61 72 250
61 73 268
61 74 138
61 75 6
61 76 161
61 77 207
61 78 4
61 79 33
61 80 109
61 81 259
61 82 266
61 83 62
61 84 26
61 85 59
61 86 73
61 87 175
61 88 182
61 89 164
61 90 38
62 63 163
62 64 203
62 65 226
62 66 218
62 67 125
62 68 80
62 69 142
62 70 199
62 71 135
62 72 95
62 73 91
62 74 215
62 75 72
62 76 236
62 77 227
62 78 37
62 79 64
62 80 221
62 81 127
62 82 78
62 83 159
62 84 48
62 85 219
62 86 149
62 87 246
62 88 110
62 89 72
62 90 99
63 64 218
63 65 118
63 66 181
63 67 257
63 68 79
63 69 92
63 70 197
63 71 225
63 72 197
63 73 176
63 74 7
63 75 59
63 76 27
63 77 147
63 78 65
63 79 223
63 80 224
63 81 92
63 82 198
63 83 206
63 84 15
63 85 1
63 86 196
63 87 236
63 88 247
63 89 27
63 90 203
64 65 78
64 66 130
64 67 133
64 68 14
64 69 13
64 70 246
64 71 207
64 72 134
64 73 124
64 74 228
64 75 261
64 76 231
64 77 216
64 78 21
64 79 20
64 80 194
64 81 44
64 82 189
64 83 65
64 84 249
64 85 186
64 86 135
64 87 152
64 88 207
64 89 172
64 90 214
65 66 32
65 67 33
65 68 2
65 69 79
65 70 192
65 71 93
65 72 61
65 73 60
65 74 258
65 75 72
65 76 201
65 77 60
65 78 173
65 79 238
65 80 251
65 81 73
65 82 72
65 83 60
65 84 24
65 85 56
65 86 0
65 87 177
65 88 259
65 89 184
65 90 10
66 67 165
66 68 260
66 69 235
66 70 101
66 71 194
66 72 7
66 73 193
66 74 61
66 75 144
66 76 49
66 77 252
66 78 249
66 79 258
66 80 200
66 81 118
66 82 240
66 83 172
66 84 66
66 85 74
66 86 88
66 87 165
66 88 44
66 89 95
66 90 173
67 68 82
67 69 142
67 70 269
67 71 250
67 72 15
67 73 35
67 74 44
67 75 11
67 76 59
67 77 56
67 78 181
67 79 87
67 80 227
67 81 267
67 82 178
67 83 232
67 84 61
67 85 52
67 86 117
67 87 75
67 88 109
67 89 186
67 90 14
68 69 149
68 70 200
68 71 5
68 72 42
68 73 211
68 74 58
68 75 153
68 76 223
68 77 8
68 78 198
68 79 174
68 80 85
68 81 154
68 82 62
68 83 122
68 84 215
68 85 6
68 86 19
68 87 156
68 88 221
68 89 8
68 90 170
69 70 73
69 71 105
69 72 263
69 73 91
69 74 253
69 75 160
69 76 2
69 77 142
69 78 178
69 79 193
69 80 139
69 81 193
69 82 214
69 83 112
69 84 82
69 85 224
69 86 242
69 87 132
69 88 30
69 89 38
69 90 97
70 71 10
70 72 167
70 73 182
70 74 29
70 75 79
70 76 136
70 77 262
70 78 6
70 79 256
70 80 110
70 81 253
70 82 172
70 83 212
70 84 154
70 85 190
70 86 197
70 87 168
70 88 40
70 89 0
70 90 51
71 72 252
71 73 20
71 74 245
71 75 211
71 76 197
71 77 22
71 78 97
71 79 79
71 80 86
71 81 126
71 82 93
71 83 158
71 84 87
71 85 109
71 86 102
71 87 20
71 88 188
71 89 269
71 90 62
72 73 111
72 74 20
72 75 209
72 76 209
72 77 256
72 78 142
72 79 99
72 80 248
72 81 97
72 82 100
72 83 106
72 84 147
72 85 217
72 86 155
72 87 88
72 88 209
72 89 61
72 90 88
73 74 10
73 75 90
73 76 191
73 77 20
73 78 262
73 79 183
73 80 5
73 81 14
73 82 193
73 83 168
73 84 106
73 85 7
73 86 262
73 87 181
73 88 242
73 89 110
73 90 134
74 75 2
74 76 159
74 77 181
74 78 185
74 79 143
74 80 43
74 81 104
74 82 79
74 83 90
74 84 79
74 85 262
74 86 93
74 87 8
74 88 217
74 89 161
74 90 111
75 76 125
75 77 125
75 78 196
75 79 86
75 80 18
75 81 70
75 82 58
75 83 258
75 84 191
75 85 241
75 86 222
75 87 261
75 88 223
75 89 259
75 90 163
76 77 75
76 78 210
76 79 255
76 80 199
76 81 166
76 82 97
76 83 148
76 84 246
76 85 241
76 86 265
76 87 82
76 88 234
76 89 19
76 90 166
77 78 27
77 79 39
77 80 117
77 81 214
77 82 109
77 83 112
77 84 183
77 85 133
77 86 69
77 87 153
77 88 165
77 89 65
77 90 256
78 79 181
78 80 167
78 81 32
78 82 200
78 83 41
78 84 194
78 85 213
78 86 150
78 87 50
78 88 166
78 89 199
78 90 89
79 80 67
79 81 158
79 82 74
79 83 84
79 84 195
79 85 143
79 86 74
79 87 51
79 88 45
79 89 244
79 90 203
80 81 220
80 82 50
80 83 103
80 84 87
80 85 92
80 86 58
80 87 170
80 88 236
80 89 251
80 90 246
81 82 41
81 83 179
81 84 263
81 85 91
81 86 52
81 87 74
81 88 260
81 89 4
81 90 116
82 83 118
82 84 166
82 85 253
82 86 236
82 87 182
82 88 144
82 89 141
82 90 228
83 84 13
83 85 160
83 86 27
83 87 176
83 88 16
83 89 156
83 90 172
84 85 32
84 86 148
84 87 98
84 88 64
84 89 31
84 90 94
85 86 11
85 87 18
85 88 240
85 89 79
85 90 17
86 87 130
86 88 5
86 89 176
86 90 245
87 88 182
87 89 69
87 90 186
88 89 129
88 90 268
89 90 37
